n_skills = 6;
n_workers = 6;
has_skills = [{1, 6}, {5, 6}, {3, 5}, {3, 4}, {4, 5}, {2, 3}];
n_tasks = 30;
d = [4, 2, 1, 2, 3, 3, 3, 1, 6, 1, 3, 1, 2, 2, 2, 1, 5, 3, 4, 3, 1, 1, 2, 2, 2, 2, 3, 2, 2, 4];
rr = [| 1, 0, 0, 0, 0, 0, 0, 0, 0, 1, 0, 0, 0, 1, 0, 0, 1, 1, 0, 0, 0, 1, 0, 0, 0, 0, 0, 1, 0, 0
      | 0, 0, 1, 0, 0, 0, 0, 1, 0, 0, 0, 0, 1, 0, 0, 0, 0, 0, 0, 1, 0, 0, 0, 0, 0, 0, 0, 0, 0, 0
      | 2, 1, 0, 0, 1, 2, 0, 0, 0, 0, 0, 2, 0, 0, 0, 1, 0, 0, 0, 1, 1, 0, 0, 0, 0, 2, 0, 1, 0, 1
      | 0, 1, 0, 0, 0, 1, 0, 1, 0, 2, 0, 0, 0, 0, 1, 1, 0, 2, 0, 0, 1, 0, 1, 0, 1, 0, 0, 0, 0, 0
      | 0, 0, 0, 2, 0, 0, 2, 0, 0, 0, 2, 1, 2, 2, 1, 0, 2, 0, 2, 0, 0, 1, 0, 2, 1, 0, 1, 0, 0, 0
      | 0, 0, 2, 0, 1, 0, 1, 0, 1, 0, 0, 0, 0, 0, 0, 0, 0, 0, 1, 0, 0, 0, 1, 0, 0, 0, 0, 0, 1, 1 |];
suc = [{4, 5, 6}, {8}, {29}, {16, 19}, {7, 10, 12}, {23}, {15, 18}, {9, 11, 17}, {13}, {14, 15, 23}, {27}, {20}, {18, 25}, {27}, {19}, {21}, {27}, {26, 28}, {30}, {28, 29}, {22, 24, 26}, {25}, {24}, {29}, {30}, {30}, {28}, {}, {}, {}];

maxMakeSpan = 30;

% 1.) Work with some other agent
workTogether =   [{1,2}, {3,4}, {1,3}, {2,4}, {5,6},{4,6}];
scWorkTogether = [    1,     2,     3,       4,     5,    6];

% 2.) Do not work with other agent
workNotTogether =   [{1,4}, {2,3}, {1,5}, {2,4,5}];
scWorkNotTogether = [    7,     8,     9,      10];

% 3.) Work on certain task preferably
desiredTaskWorkers = [3,   4,  5,  6, 1, 2];
desiredTasks =       [5,  3,  4,  2, 29, 14];
scDesireds =         [11, 12, 13, 14, 15, 16];

% 4.) Do not work on a certain task preferably  
avoidedTaskWorkers = [1,   1,  6, 2, 3, 4, 5];
avoidedTasks =       [2,   3, 19, 23, 25, 12, 11];
scAvoideds =         [17, 18, 19, 20, 21, 22, 23];

crTempEdges = [| 3, 1 |
                 2, 3 |
                 2, 4 |
                 4, 1 |
                 1, 6 |
                 1, 7 |
                 8, 3 |
                10, 4 |
                12, 4 |
                15, 1 |
                21, 22 |
                22, 23 |
                16, 15 |
                12, 17 |];
